90
7
41
86
4
70
47
23
5
91
31
6
14
44
72
58
80
78
83
36
49
92
88
42
71
66
45
94
30
84
16
38
53
55
93
25
69
8
64
89
75
29
9
20
56
28
57
98
21
79
65
74
62
1
96
24
51
2
39
15
0
19
32
10
40
99
37
81
48
61
17
87
95
33
60
85
73
12
63
22
54
35
34
76
26
11
82
27
68
59
97
52
77
67
43
50
46
18
13
3
